certificates/rado_a6_c218_N36.drat
-36 0
34 0
-20 0
18 0
22 0
-4 0
-32 0
-8 0
2 0
6 0
30 0
31 0
10 0
-16 0
0
